data/processed_heuristic-threshold/instances/2/8/ds_519_courier_949/pairwise.tsp
NAME: ds_519_courier_949
TYPE: TSP
COMMENT: nil
DIMENSION: 10
EDGE_WEIGHT_TYPE: EXPLICIT
EDGE_WEIGHT_FORMAT: FULL_MATRIX
EDGE_WEIGHT_SECTION
9999 4033 3217 3793 2283 3027 3436 2960 3790 4058 
4033 9999 1117 385 2411 1199 632 1387 252 44 
3217 1117 9999 745 1311 206 564 1452 890 1159 
3793 385 745 9999 2051 851 364 1385 228 429 
2283 2411 1311 2051 9999 1213 1798 2154 2169 2450 
3027 1199 206 851 1213 9999 588 1314 955 1238 
3436 632 564 364 1798 588 9999 1097 380 667 
2960 1387 1452 1385 2154 1314 1097 9999 1230 1389 
3790 252 890 228 2169 955 380 1230 9999 287 
4058 44 1159 429 2450 1238 667 1389 287 9999 
