data/processed_heuristic-threshold/instances/2/8/ds_519_courier_949/pairwise.sol
10
0 4 5 2 6 3 8 1 9 7 
